50, 610
21, 26
4, 9
49, 54
33, 38
20, 25
22, 27
49, 54
12, 17
22, 27
17, 22
1, 6
47, 52
30, 35
9, 14
28, 33
32, 37
39, 44
16, 21
10, 15
47, 52
15, 20
24, 29
17, 22
30, 35
36, 41
2, 7
34, 39
43, 48
38, 43
7, 12
4, 9
16, 21
44, 49
42, 47
5, 10
20, 25
23, 28
41, 46
10, 15
13, 18
18, 23
3, 8
9, 14
39, 44
40, 45
46, 51
16, 21
23, 28
14, 19
40, 45
